p cnf 639 2236
c ind 632 635 631 634 633 630 636 637 584 587 0
c ind 600 603 608 611 624 627 571 568 616 619 0
c ind 592 595 576 579 560 563 599 586 607 602 0
c ind 615 575 583 610 626 570 578 591 594 618 0
c ind 623 567 559 562 585 598 601 609 625 569 0
c ind 577 582 606 574 593 617 614 622 561 566 0
c ind 590 558 588 589 604 605 580 581 612 613 0
c ind 572 573 620 621 564 565 596 597 628 629 0
c ind 1 0
c ret 470 479 480 481 482 483 484 485 486 487 0
c ret 488 471 489 490 491 492 493 494 495 496 0
c ret 497 498 472 499 500 501 502 503 504 505 0
c ret 506 507 508 473 509 510 511 512 513 514 0
c ret 515 516 517 518 474 519 520 521 522 523 0
c ret 524 525 526 527 528 475 529 530 531 532 0
c ret 533 534 535 536 537 538 476 539 540 541 0
c ret 542 543 544 545 546 547 548 477 549 550 0
c ret 551 552 553 554 555 556 557 478 0
2 3 -274 -367 -417 0
-2 -3 0
-2 417 0
-2 367 0
-2 274 0
3 -4 -167 -193 -237 0
-3 237 0
-3 4 0
-3 193 0
-3 167 0
4 -5 83 -160 -165 0
-4 165 0
-4 5 0
-4 160 0
-4 -83 0
5 -6 -55 -65 -72 0
-5 72 0
-5 6 0
-5 65 0
-5 55 0
6 -7 -43 -52 -53 0
-6 53 0
-6 7 0
-6 52 0
-6 43 0
7 -8 -17 -26 -35 0
-7 35 0
-7 8 0
-7 26 0
-7 17 0
8 -10 13 0
8 9 -14 0
8 9 13 0
8 -10 -14 0
-8 -9 10 0
-8 -13 14 0
9 608 -616 0
9 -608 616 0
-9 -608 -616 0
-9 608 616 0
10 -11 -607 0
-10 607 0
-10 11 0
11 12 -606 0
-11 606 0
-11 -12 0
12 612 -613 0
12 -612 613 0
-12 -612 -613 0
-12 612 613 0
13 603 -611 0
13 -603 611 0
-13 -603 -611 0
-13 603 611 0
14 -15 -602 0
-14 602 0
-14 15 0
15 -16 -601 0
-15 601 0
-15 16 0
16 604 -605 0
16 -604 605 0
-16 -604 -605 0
-16 604 605 0
17 -18 23 0
17 19 -22 0
17 19 23 0
17 -18 -22 0
-17 18 -19 0
-17 22 -23 0
18 571 -579 0
18 -571 579 0
-18 -571 -579 0
-18 571 579 0
19 -20 -570 0
-19 570 0
-19 20 0
20 -21 -569 0
-20 569 0
-20 21 0
21 572 -573 0
21 -572 573 0
-21 -572 -573 0
-21 572 573 0
22 579 -587 0
22 -579 587 0
-22 -579 -587 0
-22 579 587 0
23 -24 -578 0
-23 578 0
-23 24 0
24 -25 -577 0
-24 577 0
-24 25 0
25 580 -581 0
25 -580 581 0
-25 -580 -581 0
-25 580 581 0
26 -28 32 0
26 27 -31 0
26 -28 -31 0
26 27 32 0
-26 31 -32 0
-26 -27 28 0
27 627 -635 0
27 -627 635 0
-27 -627 -635 0
-27 627 635 0
28 -29 -626 0
-28 626 0
-28 29 0
29 -30 -625 0
-29 625 0
-29 30 0
30 628 -629 0
30 -628 629 0
-30 -628 -629 0
-30 628 629 0
31 592 -600 0
31 -592 600 0
-31 -592 -600 0
-31 592 600 0
32 -33 -591 0
-32 591 0
-32 33 0
33 34 -590 0
-33 590 0
-33 -34 0
34 596 -597 0
34 -596 597 0
-34 -596 -597 0
-34 596 597 0
35 -37 39 0
35 36 -40 0
35 36 39 0
35 -37 -40 0
-35 -36 37 0
-35 -39 40 0
36 595 -603 0
36 -595 603 0
-36 -595 -603 0
-36 595 603 0
37 -38 -594 0
-37 594 0
-37 38 0
-34 38 -593 0
-38 593 0
34 -38 0
39 584 -592 0
39 -584 592 0
-39 -584 -592 0
-39 584 592 0
40 -41 -583 0
-40 583 0
-40 41 0
41 42 -582 0
-41 582 0
-41 -42 0
42 588 -589 0
42 -588 589 0
-42 -588 -589 0
-42 588 589 0
43 -44 49 50 0
43 -44 -49 -50 0
-43 44 0
-43 -49 50 0
-43 49 -50 0
-32 44 48 0
31 44 -45 0
-32 44 -45 0
31 44 48 0
-44 45 -48 0
-31 32 -44 0
45 -46 -562 0
-45 562 0
-45 46 0
46 -47 -561 0
-46 561 0
-46 47 0
47 564 -565 0
47 -564 565 0
-47 -564 -565 0
-47 564 565 0
48 563 -571 0
48 -563 571 0
-48 -563 -571 0
-48 563 571 0
49 611 -619 0
49 -611 619 0
-49 -611 -619 0
-49 611 619 0
50 -51 -610 0
-50 610 0
-50 51 0
-12 51 -609 0
-51 609 0
12 -51 0
-9 -23 52 0
10 22 52 0
-9 22 52 0
10 -23 52 0
9 -10 -52 0
-22 23 -52 0
45 53 -630 0
-48 53 -54 0
45 53 -54 0
-48 53 -630 0
-45 48 -53 0
-53 54 630 0
-30 54 622 0
30 54 -622 0
-30 -54 -622 0
30 -54 622 0
55 -56 -60 64 0
55 -56 61 64 0
-55 56 0
-55 -64 0
-55 60 -61 0
-39 56 -58 0
40 56 57 0
-39 56 57 0
40 56 -58 0
39 -40 -56 0
-56 -57 58 0
57 576 -584 0
57 -576 584 0
-57 -576 -584 0
-57 576 584 0
58 -59 -575 0
-58 575 0
-58 59 0
25 59 -574 0
-59 574 0
-25 -59 0
60 616 -624 0
60 -616 624 0
-60 -616 -624 0
-60 616 624 0
61 -62 -615 0
-61 615 0
-61 62 0
62 63 -614 0
-62 614 0
-62 -63 0
63 620 -621 0
63 -620 621 0
-63 -620 -621 0
-63 620 621 0
-14 64 -603 -611 0
-14 64 603 611 0
14 -64 0
-64 -603 611 0
-64 603 -611 0
65 66 68 -70 71 0
65 66 -68 70 71 0
-65 -71 0
-65 -68 -70 0
-65 -66 0
-65 68 70 0
66 67 585 0
-66 -585 0
-66 -67 0
-25 67 -577 0
25 67 577 0
-25 -67 577 0
25 -67 -577 0
68 -69 -586 0
-68 586 0
-68 69 0
-42 69 -585 0
-69 585 0
42 -69 0
70 -587 -595 0
70 587 595 0
-70 587 -595 0
-70 -587 595 0
-58 71 -576 -584 0
-58 71 576 584 0
58 -71 0
-71 -576 584 0
-71 576 -584 0
72 -73 77 78 -80 0
72 -73 -77 -78 -80 0
-72 80 0
-72 -77 78 0
-72 73 0
-72 77 -78 0
-19 73 75 0
18 73 -74 0
-19 73 -74 0
18 73 75 0
-73 74 -75 0
-18 19 -73 0
74 619 -627 0
74 -619 627 0
-74 -619 -627 0
-74 619 627 0
75 -76 -618 0
-75 618 0
-75 76 0
-63 76 -617 0
-76 617 0
63 -76 0
77 568 -576 0
77 -568 576 0
-77 -568 -576 0
-77 568 576 0
78 -79 -567 0
-78 567 0
-78 79 0
21 79 -566 0
-79 566 0
-21 -79 0
-27 80 -81 82 0
28 80 -81 82 0
-80 81 0
-80 -82 0
27 -28 -80 0
-36 -61 81 0
37 60 81 0
-36 60 81 0
37 -61 81 0
36 -37 -81 0
-60 61 -81 0
75 82 619 -627 0
75 82 -619 627 0
-75 -82 0
-82 619 627 0
-82 -619 -627 0
83 -84 -115 -130 -145 0
-83 145 0
-83 84 0
-83 130 0
-83 115 0
84 -85 100 111 0
84 -85 100 108 0
-84 85 0
-84 -100 0
-84 -108 -111 0
85 89 93 0
85 86 96 0
85 89 96 0
85 86 93 0
-85 -86 -89 0
-85 -93 -96 0
86 -87 -88 552 616 0
86 -87 -88 -552 -616 0
-86 88 0
-86 -552 616 0
-86 87 0
-86 552 -616 0
87 -555 615 0
87 -551 619 0
87 -551 -555 0
87 615 619 0
-87 555 -619 0
-87 551 -615 0
88 -554 556 -618 620 0
88 554 -556 618 -620 0
88 554 556 618 620 0
88 -554 -556 -618 -620 0
-88 -554 618 0
-88 554 -618 0
-88 556 -620 0
-88 -556 620 0
89 -90 -91 550 614 0
89 -90 -91 -550 -614 0
-89 91 0
-89 -550 614 0
-89 90 0
-89 550 -614 0
90 -553 -615 0
90 551 617 0
90 551 -553 0
90 -615 617 0
-90 -551 615 0
-90 553 -617 0
91 -92 -557 -621 0
91 -92 557 621 0
-91 92 0
-91 -557 621 0
-91 557 -621 0
92 553 555 0
92 -617 -619 0
92 553 -619 0
92 555 -617 0
-92 -553 617 0
-92 -555 619 0
93 -94 -95 552 608 0
93 -94 -95 -552 -608 0
-93 95 0
-93 -552 608 0
-93 94 0
-93 552 -608 0
94 -555 607 0
94 -551 611 0
94 -551 -555 0
94 607 611 0
-94 555 -611 0
-94 551 -607 0
95 -554 556 -610 612 0
95 554 -556 610 -612 0
95 554 556 610 612 0
95 -554 -556 -610 -612 0
-95 -554 610 0
-95 554 -610 0
-95 556 -612 0
-95 -556 612 0
96 -97 -99 557 613 0
96 -97 -99 -557 -613 0
-96 99 0
-96 -557 613 0
-96 97 0
-96 557 -613 0
97 -98 -550 -606 0
97 -98 550 606 0
-97 98 0
-97 -550 606 0
-97 550 -606 0
98 -553 -607 0
98 551 609 0
98 551 -553 0
98 -607 609 0
-98 -551 607 0
-98 553 -609 0
99 553 555 0
99 -609 -611 0
99 553 -611 0
99 555 -609 0
-99 -553 609 0
-99 -555 611 0
100 -101 -104 -106 -107 0
-100 107 0
-100 101 0
-100 106 0
-100 104 0
101 -102 -103 553 601 0
101 -102 -103 -553 -601 0
-101 103 0
-101 -553 601 0
-101 102 0
-101 553 -601 0
102 -554 600 0
102 -552 602 0
102 -552 -554 0
102 600 602 0
-102 554 -602 0
-102 552 -600 0
103 -551 555 -599 603 0
103 551 -555 599 -603 0
103 551 555 599 603 0
103 -551 -555 -599 -603 0
-103 -551 599 0
-103 551 -599 0
-103 555 -603 0
-103 -555 603 0
104 -105 -556 -604 0
104 -105 556 604 0
-104 105 0
-104 -556 604 0
-104 556 -604 0
105 -557 -600 0
105 552 605 0
105 552 -557 0
105 -600 605 0
-105 -552 600 0
-105 557 -605 0
106 554 557 0
106 -602 -605 0
106 554 -605 0
106 557 -602 0
-106 -554 602 0
-106 -557 605 0
107 -550 -598 0
107 550 598 0
-107 550 -598 0
-107 -550 598 0
108 -109 -110 552 632 0
108 -109 -110 -552 -632 0
-108 110 0
-108 -552 632 0
-108 109 0
-108 552 -632 0
109 -555 631 0
109 -551 635 0
109 -551 -555 0
109 631 635 0
-109 555 -635 0
-109 551 -631 0
110 -554 556 -634 636 0
110 554 -556 634 -636 0
110 554 556 634 636 0
110 -554 -556 -634 -636 0
-110 -554 634 0
-110 554 -634 0
-110 556 -636 0
-110 -556 636 0
111 -112 -113 550 630 0
111 -112 -113 -550 -630 0
-111 113 0
-111 -550 630 0
-111 112 0
-111 550 -630 0
112 -553 -631 0
112 551 633 0
112 551 -553 0
112 -631 633 0
-112 -551 631 0
-112 553 -633 0
113 -114 -557 -637 0
113 -114 557 637 0
-113 114 0
-113 -557 637 0
-113 557 -637 0
114 553 555 0
114 -633 -635 0
114 553 -635 0
114 555 -633 0
-114 -553 633 0
-114 -555 635 0
115 119 123 0
115 116 126 0
115 119 126 0
115 116 123 0
-115 -116 -119 0
-115 -123 -126 0
116 -117 -118 552 560 0
116 -117 -118 -552 -560 0
-116 118 0
-116 -552 560 0
-116 117 0
-116 552 -560 0
117 -555 559 0
117 -551 563 0
117 -551 -555 0
117 559 563 0
-117 555 -563 0
-117 551 -559 0
118 -554 556 -562 564 0
118 554 -556 562 -564 0
118 554 556 562 564 0
118 -554 -556 -562 -564 0
-118 -554 562 0
-118 554 -562 0
-118 556 -564 0
-118 -556 564 0
119 -120 -121 550 558 0
119 -120 -121 -550 -558 0
-119 121 0
-119 -550 558 0
-119 120 0
-119 550 -558 0
120 -553 -559 0
120 551 561 0
120 551 -553 0
120 -559 561 0
-120 -551 559 0
-120 553 -561 0
121 -122 -557 -565 0
121 -122 557 565 0
-121 122 0
-121 -557 565 0
-121 557 -565 0
122 553 555 0
122 -561 -563 0
122 553 -563 0
122 555 -561 0
-122 -553 561 0
-122 -555 563 0
123 -124 -125 553 569 0
123 -124 -125 -553 -569 0
-123 125 0
-123 -553 569 0
-123 124 0
-123 553 -569 0
124 -554 568 0
124 -552 570 0
124 -552 -554 0
124 568 570 0
-124 554 -570 0
-124 552 -568 0
125 -551 555 -567 571 0
125 551 -555 567 -571 0
125 551 555 567 571 0
125 -551 -555 -567 -571 0
-125 -551 567 0
-125 551 -567 0
-125 555 -571 0
-125 -555 571 0
126 -127 -128 556 572 0
126 -127 -128 -556 -572 0
-126 128 0
-126 -556 572 0
-126 127 0
-126 556 -572 0
127 -557 -568 0
127 552 573 0
127 552 -557 0
127 -568 573 0
-127 -552 568 0
-127 557 -573 0
128 -129 -550 -566 0
128 -129 550 566 0
-128 129 0
-128 -550 566 0
-128 550 -566 0
129 554 557 0
129 -570 -573 0
129 554 -573 0
129 557 -570 0
-129 -554 570 0
-129 -557 573 0
130 134 138 0
130 131 141 0
130 134 141 0
130 131 138 0
-130 -131 -134 0
-130 -138 -141 0
131 -132 -133 553 577 0
131 -132 -133 -553 -577 0
-131 133 0
-131 -553 577 0
-131 132 0
-131 553 -577 0
132 -554 576 0
132 -552 578 0
132 -552 -554 0
132 576 578 0
-132 554 -578 0
-132 552 -576 0
133 -551 555 -575 579 0
133 551 -555 575 -579 0
133 551 555 575 579 0
133 -551 -555 -575 -579 0
-133 -551 575 0
-133 551 -575 0
-133 555 -579 0
-133 -555 579 0
134 -135 -137 550 574 0
134 -135 -137 -550 -574 0
-134 137 0
-134 -550 574 0
-134 135 0
-134 550 -574 0
135 -136 -556 -580 0
135 -136 556 580 0
-135 136 0
-135 -556 580 0
-135 556 -580 0
136 -557 -576 0
136 552 581 0
136 552 -557 0
136 -576 581 0
-136 -552 576 0
-136 557 -581 0
137 554 557 0
137 -578 -581 0
137 554 -581 0
137 557 -578 0
-137 -554 578 0
-137 -557 581 0
138 -139 -140 553 625 0
138 -139 -140 -553 -625 0
-138 140 0
-138 -553 625 0
-138 139 0
-138 553 -625 0
139 -554 624 0
139 -552 626 0
139 -552 -554 0
139 624 626 0
-139 554 -626 0
-139 552 -624 0
140 -551 555 -623 627 0
140 551 -555 623 -627 0
140 551 555 623 627 0
140 -551 -555 -623 -627 0
-140 -551 623 0
-140 551 -623 0
-140 555 -627 0
-140 -555 627 0
141 -142 -143 556 628 0
141 -142 -143 -556 -628 0
-141 143 0
-141 -556 628 0
-141 142 0
-141 556 -628 0
142 -557 -624 0
142 552 629 0
142 552 -557 0
142 -624 629 0
-142 -552 624 0
-142 557 -629 0
143 -144 -550 -622 0
143 -144 550 622 0
-143 144 0
-143 -550 622 0
-143 550 -622 0
144 554 557 0
144 -626 -629 0
144 554 -629 0
144 557 -626 0
-144 -554 626 0
-144 -557 629 0
145 149 153 0
145 146 156 0
145 149 156 0
145 146 153 0
-145 -146 -149 0
-145 -153 -156 0
146 -147 -148 552 584 0
146 -147 -148 -552 -584 0
-146 148 0
-146 -552 584 0
-146 147 0
-146 552 -584 0
147 -555 583 0
147 -551 587 0
147 -551 -555 0
147 583 587 0
-147 555 -587 0
-147 551 -583 0
148 -554 556 -586 588 0
148 554 -556 586 -588 0
148 554 556 586 588 0
148 -554 -556 -586 -588 0
-148 -554 586 0
-148 554 -586 0
-148 556 -588 0
-148 -556 588 0
149 -150 -152 557 589 0
149 -150 -152 -557 -589 0
-149 152 0
-149 -557 589 0
-149 150 0
-149 557 -589 0
150 -151 -550 -582 0
150 -151 550 582 0
-150 151 0
-150 -550 582 0
-150 550 -582 0
151 -553 -583 0
151 551 585 0
151 551 -553 0
151 -583 585 0
-151 -551 583 0
-151 553 -585 0
152 553 555 0
152 -585 -587 0
152 553 -587 0
152 555 -585 0
-152 -553 585 0
-152 -555 587 0
153 -154 -155 553 593 0
153 -154 -155 -553 -593 0
-153 155 0
-153 -553 593 0
-153 154 0
-153 553 -593 0
154 -554 592 0
154 -552 594 0
154 -552 -554 0
154 592 594 0
-154 554 -594 0
-154 552 -592 0
155 -551 555 -591 595 0
155 551 -555 591 -595 0
155 551 555 591 595 0
155 -551 -555 -591 -595 0
-155 -551 591 0
-155 551 -591 0
-155 555 -595 0
-155 -555 595 0
156 -157 -158 556 596 0
156 -157 -158 -556 -596 0
-156 158 0
-156 -556 596 0
-156 157 0
-156 556 -596 0
157 -557 -592 0
157 552 597 0
157 552 -557 0
157 -592 597 0
-157 -552 592 0
-157 557 -597 0
158 -159 -550 -590 0
158 -159 550 590 0
-158 159 0
-158 -550 590 0
-158 550 -590 0
159 554 557 0
159 -594 -597 0
159 554 -597 0
159 557 -594 0
-159 -554 594 0
-159 -557 597 0
160 161 162 -591 0
160 -161 162 591 0
160 161 -591 608 0
160 -161 591 608 0
-160 -161 -591 0
-160 161 591 0
-160 -162 -608 0
-41 161 -583 0
41 161 583 0
-41 -161 583 0
41 -161 -583 0
162 -163 -600 0
162 163 600 0
-162 -163 600 0
-162 163 -600 0
163 -164 -599 0
-163 599 0
-163 164 0
16 164 -598 0
-164 598 0
-16 -164 0
165 -166 -608 615 0
-162 165 166 -615 0
165 166 -608 -615 0
-162 165 -166 615 0
-165 166 615 0
-165 -166 -615 0
162 -165 608 0
-11 166 -607 0
11 166 607 0
-11 -166 607 0
11 -166 -607 0
167 -168 -180 -187 -191 0
-167 191 0
-167 168 0
-167 187 0
-167 180 0
168 -169 -172 -175 -178 0
-168 178 0
-168 169 0
-168 175 0
-168 172 0
169 -170 -602 0
169 -171 -634 0
169 -602 -634 0
169 -170 -171 0
-169 170 634 0
-169 171 602 0
-29 170 -626 0
29 170 626 0
-29 -170 626 0
29 -170 -626 0
-38 171 -594 0
38 171 594 0
-38 -171 594 0
38 -171 -594 0
172 173 -174 0
172 570 626 0
172 -174 626 0
172 173 570 0
-172 -173 -626 0
-172 174 -570 0
-76 173 -618 0
76 173 618 0
-76 -173 618 0
76 -173 -618 0
-46 174 562 0
46 174 -562 0
-46 -174 -562 0
46 -174 562 0
175 -610 623 0
175 -176 177 0
175 177 -610 0
175 -176 623 0
-175 176 610 0
-175 -177 -623 0
-15 176 -602 0
15 176 602 0
-15 -176 602 0
15 -176 -602 0
-62 177 -615 0
62 177 615 0
-62 -177 615 0
62 -177 -615 0
178 -599 607 0
-164 178 -179 599 0
164 178 -599 0
178 -179 607 0
-178 179 599 0
-164 -178 -599 -607 0
164 -178 599 -607 0
-33 179 -591 0
33 179 591 0
-33 -179 591 0
33 -179 -591 0
180 181 183 -184 186 0
180 181 -183 184 186 0
-180 -186 0
-180 -183 -184 0
-180 -181 0
-180 183 184 0
181 -182 -594 0
-181 594 0
-181 182 0
-69 182 -586 0
69 182 586 0
-69 -182 586 0
69 -182 -586 0
183 558 -559 0
183 -558 559 0
-183 -558 -559 0
-183 558 559 0
184 -185 -567 0
184 185 567 0
-184 -185 567 0
-184 185 -567 0
-47 185 -558 0
-185 558 0
47 -185 0
-179 186 -599 0
-186 599 0
179 -186 0
187 -188 -631 0
187 -189 -578 0
187 -578 -631 0
187 -188 -189 0
-187 189 631 0
-187 188 578 0
-20 188 -570 0
20 188 570 0
-20 -188 570 0
20 -188 -570 0
189 -190 -623 0
189 190 623 0
-189 -190 623 0
-189 190 -623 0
30 190 -622 0
-190 622 0
-30 -190 0
170 191 192 0
191 586 634 0
191 192 634 0
170 191 586 0
-170 -191 -634 0
-191 -192 -586 0
-24 192 -578 0
24 192 578 0
-24 -192 578 0
24 -192 -578 0
193 -194 -195 -197 -231 0
-193 231 0
-193 194 0
-193 197 0
-193 195 0
171 188 194 0
194 578 602 0
188 194 602 0
171 194 578 0
-171 -194 -602 0
-188 -194 -578 0
195 196 -570 0
174 195 583 0
174 195 196 0
195 -570 583 0
-195 -196 -583 0
-174 -195 570 0
-59 196 -575 0
59 196 575 0
-59 -196 575 0
59 -196 -575 0
197 -198 -226 -227 633 0
197 -198 226 -227 -633 0
-197 227 0
-197 -226 -633 0
-197 198 0
-197 226 633 0
51 198 -199 -209 -210 0
-51 198 -199 209 -210 0
-198 210 0
-51 -198 -209 0
-198 199 0
51 -198 209 0
199 -200 -202 -204 -207 0
-199 207 0
-199 200 0
-199 204 0
-199 202 0
200 201 -572 -581 0
200 201 572 -588 0
-200 -201 0
-200 -572 581 0
-200 572 588 0
201 573 589 0
201 -564 573 0
-201 -573 0
-201 564 -589 0
202 203 -597 613 0
202 203 -604 -613 0
-202 -203 0
-202 597 613 0
-202 604 -613 0
203 612 628 0
203 621 628 0
-203 -628 0
-203 -612 -621 0
204 -205 -206 605 0
204 -205 -206 612 0
-204 206 0
-204 205 0
-204 -605 -612 0
205 558 559 0
-205 -558 0
-205 -559 0
206 -588 589 0
206 -580 597 0
206 -580 -588 0
206 589 597 0
-206 588 -597 0
-206 580 -589 0
207 -208 628 0
207 -208 612 621 0
-207 208 0
-207 -621 -628 0
-207 -612 -628 0
208 560 561 562 563 0
-208 -563 0
-208 -562 0
-208 -560 0
-208 -561 0
209 -610 -618 0
209 610 618 0
-209 610 -618 0
-209 -610 618 0
16 210 -211 -212 -214 0
-16 210 211 -212 -214 0
-210 214 0
16 -210 211 0
-210 212 0
-16 -210 -211 0
211 -601 -609 0
211 601 609 0
-211 601 -609 0
-211 -601 609 0
212 -213 580 0
212 -213 573 0
-212 213 0
-212 -573 -580 0
213 588 629 0
213 -597 636 0
213 -597 629 0
213 588 636 0
-213 -588 597 0
-213 -629 -636 0
214 -215 -217 -220 -223 0
-214 223 0
-214 215 0
-214 220 0
-214 217 0
215 -216 -613 629 0
215 -216 -620 -629 0
-215 216 0
-215 613 629 0
-215 620 -629 0
216 564 565 588 0
216 564 565 581 0
-216 -564 0
-216 -565 0
-216 -581 -588 0
217 218 -219 -596 0
217 218 -219 -612 0
-217 219 0
-217 -218 0
-217 596 612 0
218 629 636 0
-218 -629 0
-218 -636 0
219 -564 -605 0
219 573 596 0
219 -564 596 0
219 573 -605 0
-219 564 -573 0
-219 -596 605 0
220 221 222 589 -596 0
220 221 222 -589 596 0
-220 -221 0
-220 589 596 0
-220 -222 0
-220 -589 -596 0
221 628 -637 0
-221 -628 0
-221 637 0
222 -597 -604 0
-222 597 0
-222 604 0
223 224 225 565 -572 0
223 224 225 -565 572 0
-223 -224 0
-223 565 572 0
-223 -225 0
-223 -565 -572 0
224 -628 637 0
-224 628 0
-224 -637 0
225 -613 -620 0
-225 613 0
-225 620 0
-30 226 -625 0
30 226 625 0
-30 -226 625 0
30 -226 -625 0
79 227 -228 229 -230 0
79 227 228 -229 -230 0
-79 227 228 -229 230 0
-79 227 -228 229 230 0
-79 -227 -230 0
79 -227 230 0
-227 -228 -229 0
-227 228 229 0
47 228 -558 -559 0
-228 558 0
-228 559 0
-47 -228 0
229 -560 -568 0
229 560 568 0
-229 560 -568 0
-229 -560 568 0
230 -567 -575 0
230 567 575 0
-230 567 -575 0
-230 -567 575 0
231 -232 -233 -235 -236 0
-231 236 0
-231 232 0
-231 235 0
-231 233 0
-177 232 -586 0
-192 232 -623 0
232 -586 -623 0
-177 -192 232 0
177 -232 623 0
192 -232 586 0
176 233 -607 0
233 -234 610 0
176 233 -234 0
233 -607 610 0
-176 -233 -610 0
-233 234 607 0
-164 234 -599 0
164 234 599 0
-164 -234 599 0
164 -234 -599 0
-173 235 -583 0
-196 235 -626 0
235 -583 -626 0
-173 -196 235 0
173 -235 626 0
196 -235 583 0
236 -594 631 0
-182 189 236 0
189 236 -594 0
-182 236 631 0
182 -236 594 0
-189 -236 -631 0
237 -238 -249 -257 -266 0
-237 266 0
-237 238 0
-237 257 0
-237 249 0
238 -239 -242 -245 -246 0
-238 246 0
-238 239 0
-238 245 0
-238 242 0
239 -240 -566 0
239 -241 -625 0
239 -566 -625 0
239 -240 -241 0
-239 240 625 0
-239 241 566 0
-63 240 -617 0
63 240 617 0
-63 -240 617 0
63 -240 -617 0
-47 241 558 0
47 241 -558 0
-47 -241 -558 0
47 -241 558 0
242 -243 -574 0
242 -244 569 0
242 569 -574 0
242 -243 -244 0
-242 244 574 0
-242 243 -569 0
-47 243 561 0
47 243 -561 0
-47 -243 -561 0
47 -243 561 0
-21 244 566 0
21 244 -566 0
-21 -244 -566 0
21 -244 566 0
245 566 -569 0
241 243 245 0
241 245 -569 0
243 245 566 0
-243 -245 569 0
-241 -245 -566 0
246 -601 617 0
246 -247 248 0
246 248 -601 0
246 -247 617 0
-246 247 601 0
-246 -248 -617 0
-34 247 -593 0
34 247 593 0
-34 -247 593 0
34 -247 -593 0
-12 248 -609 0
12 248 609 0
-12 -248 609 0
12 -248 -609 0
249 -250 -252 -254 -256 0
-249 256 0
-249 250 0
-249 254 0
-249 252 0
16 250 598 0
-16 250 -251 -598 0
250 -251 606 0
250 598 606 0
-250 251 -598 0
-16 -250 598 -606 0
16 -250 -598 -606 0
-34 251 -590 0
34 251 590 0
-34 -251 590 0
34 -251 -590 0
247 252 -614 0
252 -253 601 0
252 601 -614 0
247 252 -253 0
-252 253 614 0
-247 -252 -601 0
-12 253 606 0
12 253 -606 0
-12 -253 -606 0
12 -253 606 0
254 590 -598 0
254 255 -598 0
-34 254 590 0
34 254 255 -590 0
-254 -255 -590 0
34 -254 590 598 0
-34 -254 -590 598 0
-42 255 582 0
42 255 -582 0
-42 -255 -582 0
42 -255 582 0
256 614 -622 0
253 256 -622 0
-63 256 614 0
63 253 256 -614 0
-253 -256 -614 0
63 -256 614 622 0
-63 -256 -614 622 0
257 -258 -260 -263 -264 0
-257 264 0
-257 258 0
-257 263 0
-257 260 0
67 258 622 0
258 259 585 0
67 258 259 0
258 585 622 0
-67 -258 -585 0
-258 -259 -622 0
-63 259 614 0
63 259 -614 0
-63 -259 -614 0
63 -259 614 0
260 262 -606 0
260 -261 593 0
260 593 -606 0
260 -261 262 0
-260 -262 -593 0
-260 261 606 0
-16 261 598 0
16 261 -598 0
-16 -261 -598 0
16 -261 598 0
-42 262 -585 0
42 262 585 0
-42 -262 585 0
42 -262 -585 0
-248 263 -590 0
-255 263 -617 0
263 -590 -617 0
-248 -255 263 0
248 -263 617 0
255 -263 590 0
264 265 -593 0
-262 264 582 0
264 582 -593 0
-262 264 265 0
-264 -265 -582 0
262 -264 593 0
-25 265 574 0
25 265 -574 0
-25 -265 -574 0
25 -265 574 0
266 -267 269 -270 -271 0
266 -267 -269 270 -271 0
-266 271 0
-266 -269 -270 0
-266 267 0
-266 269 270 0
240 267 -577 0
267 -268 625 0
240 267 -268 0
267 -577 625 0
-240 -267 -625 0
-267 268 577 0
-21 268 -569 0
21 268 569 0
-21 -268 569 0
21 -268 -569 0
-190 269 -623 0
-269 623 0
190 -269 0
270 -624 -632 0
270 624 632 0
-270 624 -632 0
-270 -624 632 0
268 271 -272 273 0
271 -272 273 577 0
-271 272 0
-271 -273 0
-268 -271 -577 0
54 244 272 0
272 574 630 0
244 272 630 0
54 272 574 0
-54 -272 -630 0
-244 -272 -574 0
265 273 582 0
-273 -582 0
-265 -273 0
274 -275 -284 -293 -312 0
-274 312 0
-274 275 0
-274 293 0
-274 284 0
275 276 279 -280 -283 0
275 -276 -279 -280 -283 0
275 276 279 280 283 0
275 -276 -279 280 283 0
-275 276 -279 0
-275 -276 279 0
-275 280 -283 0
-275 -280 283 0
276 -277 -495 0
-276 495 0
-276 277 0
277 278 -494 0
-277 494 0
-277 -278 0
278 500 -501 0
278 -500 501 0
-278 -500 -501 0
-278 500 501 0
279 496 -504 0
279 -496 504 0
-279 -496 -504 0
-279 496 504 0
280 -281 -487 0
-280 487 0
-280 281 0
281 282 -486 0
-281 486 0
-281 -282 0
282 492 -493 0
282 -492 493 0
-282 -492 -493 0
-282 492 493 0
283 488 -496 0
283 -488 496 0
-283 -488 -496 0
-283 488 496 0
284 285 288 -289 292 0
284 -285 -288 289 -292 0
284 285 288 289 -292 0
284 -285 -288 -289 292 0
-284 285 -288 0
-284 -285 288 0
-284 289 292 0
-284 -289 -292 0
285 -286 -506 0
-285 506 0
-285 286 0
286 -287 -505 0
-286 505 0
-286 287 0
287 508 -509 0
287 -508 509 0
-287 -508 -509 0
-287 508 509 0
288 507 -515 0
288 -507 515 0
-288 -507 -515 0
-288 507 515 0
289 -290 -527 0
-289 527 0
-289 290 0
290 291 -526 0
-290 526 0
-290 -291 0
291 532 -533 0
291 -532 533 0
-291 -532 -533 0
-291 532 533 0
292 -528 -536 0
292 528 536 0
-292 528 -536 0
-292 -528 536 0
293 -294 -298 -303 -308 0
-293 308 0
-293 294 0
-293 303 0
-293 298 0
294 510 550 0
294 -295 -297 0
294 -297 550 0
294 -295 510 0
-294 295 -550 0
-294 297 -510 0
295 -296 -542 0
295 296 542 0
-295 -296 542 0
-295 296 -542 0
296 548 -549 0
296 -548 549 0
-296 -548 -549 0
-296 548 549 0
-287 297 -502 0
287 297 502 0
-287 -297 502 0
287 -297 -502 0
298 299 -478 0
298 -301 -526 0
298 -478 -526 0
298 299 -301 0
-298 -299 526 0
-298 301 478 0
299 -300 -518 0
299 300 518 0
-299 -300 518 0
-299 300 -518 0
300 524 -525 0
300 -524 525 0
-300 -524 -525 0
-300 524 525 0
301 -302 470 0
301 302 -470 0
-301 -302 -470 0
-301 302 470 0
302 476 -477 0
302 -476 477 0
-302 -476 -477 0
-302 476 477 0
303 304 486 0
303 -306 -521 0
303 486 -521 0
303 304 -306 0
-303 306 -486 0
-303 -304 521 0
304 -305 513 0
304 305 -513 0
-304 -305 -513 0
-304 305 513 0
305 516 -517 0
305 -516 517 0
-305 -516 -517 0
-305 516 517 0
306 -307 -478 0
306 307 478 0
-306 -307 478 0
-306 307 -478 0
307 484 -485 0
307 -484 485 0
-307 -484 -485 0
-307 484 485 0
308 -310 -518 0
308 309 545 0
308 309 -310 0
308 -518 545 0
-308 310 -545 0
-308 -309 518 0
-305 309 -510 0
305 309 510 0
-305 -309 510 0
305 -309 -510 0
310 -311 537 0
310 311 -537 0
-310 -311 -537 0
-310 311 537 0
311 540 -541 0
311 -540 541 0
-311 -540 -541 0
-311 540 541 0
312 -313 -330 -343 -355 0
-312 355 0
-312 313 0
-312 343 0
-312 330 0
313 -314 318 320 -321 0
313 -314 -318 -320 -321 0
-313 321 0
-313 -318 320 0
-313 314 0
-313 318 -320 0
314 -315 317 -489 0
314 315 -317 -489 0
314 315 316 -317 0
314 -315 316 317 0
-314 315 317 0
-314 -315 -317 0
-314 -316 489 0
300 315 -518 0
-315 518 0
-300 -315 0
-307 316 481 0
307 316 -481 0
-307 -316 -481 0
307 -316 481 0
317 -519 -527 0
317 519 527 0
-317 519 -527 0
-317 -519 527 0
318 -319 -479 0
-318 479 0
-318 319 0
307 319 -478 0
-319 478 0
-307 -319 0
320 480 -488 0
320 -480 488 0
-320 -480 -488 0
-320 480 488 0
321 -322 327 537 0
321 -322 327 -329 0
-321 322 0
-321 -327 0
-321 329 -537 0
322 -323 324 0
322 -326 534 0
322 324 534 0
322 -323 -326 0
-322 323 -534 0
-322 -324 326 0
-291 323 -526 0
291 323 526 0
-291 -323 526 0
291 -323 -526 0
324 -325 -490 0
-324 490 0
-324 325 0
-282 325 -489 0
-325 489 0
282 -325 0
326 491 -499 0
326 -491 499 0
-326 -491 -499 0
-326 491 499 0
327 -328 542 0
-327 -542 0
-327 328 0
-311 328 -534 0
311 328 534 0
-311 -328 534 0
311 -328 -534 0
-291 329 529 0
291 329 -529 0
-291 -329 -529 0
291 -329 529 0
330 -331 -335 -336 -342 0
-330 342 0
-330 331 0
-330 336 0
-330 335 0
-309 331 334 0
331 -332 518 0
-309 331 -332 0
331 334 518 0
-331 332 -334 0
309 -331 -518 0
332 -333 -535 0
-332 535 0
-332 333 0
311 333 -534 0
-333 534 0
-311 -333 0
334 536 -544 0
334 -536 544 0
-334 -536 -544 0
-334 536 544 0
-304 335 -510 0
297 335 521 0
297 -304 335 0
335 -510 521 0
304 -335 -521 0
-297 -335 510 0
336 -337 338 -339 0
336 337 -338 341 0
336 337 -338 -339 0
336 -337 338 341 0
-336 -337 -338 0
-336 337 338 0
-336 339 -341 0
302 337 -470 -471 0
-337 470 0
-337 471 0
-302 -337 0
338 -472 -480 0
338 472 480 0
-338 472 -480 0
-338 -472 480 0
339 -340 -522 0
-339 522 0
-339 340 0
-300 340 -521 0
-340 521 0
300 -340 0
341 523 -531 0
341 -523 531 0
-341 -523 -531 0
-341 523 531 0
-334 339 342 0
332 -341 342 0
332 339 342 0
-334 -341 342 0
-332 334 -342 0
-339 341 -342 0
343 -344 348 350 -351 0
343 -344 -348 -350 -351 0
-343 351 0
-343 -348 350 0
-343 344 0
-343 348 -350 0
344 345 346 -347 0
344 345 -347 -553 0
-344 347 0
-344 -345 0
-344 -346 553 0
-306 345 486 0
-345 -486 0
306 -345 0
-296 346 545 0
296 346 -545 0
-296 -346 -545 0
296 -346 545 0
347 -537 -545 0
311 329 347 537 0
-311 347 -537 0
329 347 -545 0
-329 -347 537 0
311 -347 -537 545 0
-311 -347 537 545 0
348 -349 -538 0
-348 538 0
-348 349 0
-311 349 -537 0
-349 537 0
311 -349 0
350 539 -547 0
350 -539 547 0
-350 -539 -547 0
-350 539 547 0
351 352 353 -354 0
351 -352 -353 -354 0
351 -352 -353 502 0
351 352 353 502 0
-351 -352 353 0
-351 352 -353 0
-351 354 -502 0
-305 352 -513 0
-352 513 0
305 -352 0
353 514 -522 0
353 -514 522 0
-353 -514 -522 0
-353 514 522 0
-278 354 -494 0
278 354 494 0
-278 -354 494 0
278 -354 -494 0
355 -356 -358 -362 -366 0
-355 366 0
-355 356 0
-355 362 0
-355 358 0
323 356 529 0
356 -357 -534 0
356 529 -534 0
323 356 -357 0
-356 357 -529 0
-323 -356 534 0
-300 357 521 0
300 357 -521 0
-300 -357 -521 0
300 -357 521 0
358 -359 361 -513 0
358 359 -361 -513 0
358 359 360 -361 0
358 -359 360 361 0
-358 359 361 0
-358 -359 -361 0
-358 -360 513 0
287 359 -502 0
-359 502 0
-287 -359 0
-287 360 505 0
287 360 -505 0
-287 -360 -505 0
287 -360 505 0
361 -503 -511 0
361 503 511 0
-361 503 -511 0
-361 -503 511 0
-299 362 365 0
362 -363 526 0
-299 362 -363 0
362 365 526 0
-362 363 -365 0
299 -362 -526 0
363 -364 -474 0
-363 474 0
-363 364 0
-302 364 -473 0
-364 473 0
302 -364 0
365 475 -483 0
365 -475 483 0
-365 -475 -483 0
-365 475 483 0
326 366 553 0
-324 -346 366 0
-324 366 553 0
326 -346 366 0
346 -366 -553 0
324 -326 -366 0
367 -368 -408 -410 523 0
367 -368 408 -410 -523 0
-367 410 0
-367 -408 -523 0
-367 368 0
-367 408 523 0
368 -369 -386 -401 -404 0
-368 404 0
-368 369 0
-368 401 0
-368 386 0
369 -370 380 -382 -383 0
369 -370 -380 382 -383 0
-369 383 0
-369 -380 -382 0
-369 370 0
-369 380 382 0
370 -371 -375 0
-370 371 0
-370 375 0
-333 371 372 373 -374 0
333 371 372 -373 -374 0
333 371 -372 -373 374 0
-333 371 -372 373 374 0
-371 -372 -374 0
-371 372 374 0
-333 -371 -373 0
333 -371 373 0
305 372 -510 0
-372 510 0
-305 -372 0
373 -535 -543 0
373 535 543 0
-373 535 -543 0
-373 -535 543 0
374 -511 -519 0
374 511 519 0
-374 511 -519 0
-374 -511 519 0
375 -376 377 378 -379 0
375 -376 -377 -378 -379 0
375 376 377 378 379 0
375 376 -377 -378 379 0
-375 376 -379 0
-375 -376 379 0
-375 -377 378 0
-375 377 -378 0
-291 376 -529 0
-376 529 0
291 -376 0
-278 377 -497 0
-377 497 0
278 -377 0
378 498 -506 0
378 -498 506 0
-378 -498 -506 0
-378 498 506 0
379 530 -538 0
379 -530 538 0
-379 -530 -538 0
-379 530 538 0
380 -381 -482 0
-380 482 0
-380 381 0
-307 381 -481 0
-381 481 0
307 -381 0
382 -483 -491 0
382 483 491 0
-382 483 -491 0
-382 -483 491 0
-281 290 383 -384 -385 0
-281 -290 383 384 -385 0
281 290 383 -384 385 0
281 -290 383 384 385 0
-290 -383 -384 0
290 -383 384 0
281 -383 -385 0
-281 -383 385 0
384 -527 -535 0
384 527 535 0
-384 527 -535 0
-384 -527 535 0
385 487 -495 0
385 -487 495 0
-385 -487 -495 0
-385 487 495 0
349 386 -387 -391 -400 0
-349 386 -387 -391 400 0
-386 387 0
-349 -386 -400 0
-386 391 0
349 -386 400 0
-277 387 388 389 -390 0
277 387 388 -389 -390 0
277 387 -388 -389 390 0
-277 387 -388 389 390 0
-277 -387 -389 0
277 -387 389 0
-387 388 390 0
-387 -388 -390 0
-296 388 -545 0
-388 545 0
296 -388 0
389 -495 -503 0
389 495 503 0
-389 495 -503 0
-389 -495 503 0
390 -546 -554 0
390 546 554 0
-390 546 -554 0
-390 -546 554 0
391 -392 -394 509 -516 0
391 -392 -394 -509 516 0
-391 394 0
-391 509 516 0
-391 392 0
-391 -509 -516 0
392 -393 -508 -517 0
392 -393 508 517 0
-392 393 0
-392 -508 517 0
-392 508 -517 0
393 472 473 474 475 0
-393 -475 0
-393 -474 0
-393 -472 0
-393 -473 0
394 -395 -398 -399 0
-394 395 0
-394 398 0
-394 399 0
395 396 397 548 557 0
395 396 397 -548 -557 0
-395 -396 0
-395 -548 557 0
-395 -397 0
-395 548 -557 0
396 524 -533 0
-396 -524 0
-396 533 0
397 492 508 0
-397 -492 0
-397 -508 0
398 476 477 509 0
398 476 477 -500 0
-398 -476 0
-398 -477 0
-398 500 -509 0
399 -493 -533 0
399 -509 524 0
399 -493 524 0
399 -509 -533 0
-399 493 509 0
-399 -524 533 0
400 -538 -546 0
400 538 546 0
-400 538 -546 0
-400 -538 546 0
-325 381 401 -402 -403 0
325 381 401 -402 403 0
-325 -381 401 402 -403 0
325 -381 401 402 403 0
-381 -401 -402 0
381 -401 402 0
325 -401 -403 0
-325 -401 403 0
402 -482 -490 0
402 482 490 0
-402 482 -490 0
-402 -482 490 0
403 490 -498 0
403 -490 498 0
-403 -490 -498 0
-403 490 498 0
340 404 -405 -406 -407 0
-340 404 -405 406 -407 0
340 404 405 -406 407 0
-340 404 405 406 407 0
-340 -404 -406 0
340 -404 406 0
-404 405 -407 0
-404 -405 407 0
296 405 -542 0
-405 542 0
-296 -405 0
406 -522 -530 0
406 522 530 0
-406 522 -530 0
-406 -522 530 0
407 543 -551 0
407 -543 551 0
-407 -543 -551 0
-407 543 551 0
408 -409 -515 0
408 409 515 0
-408 -409 515 0
-408 409 -515 0
-352 409 -514 0
-409 514 0
352 -409 0
410 -411 -412 -482 0
410 411 -412 482 0
-410 412 0
-410 411 -482 0
-410 -411 482 0
-364 411 474 0
364 411 -474 0
-364 -411 -474 0
364 -411 474 0
412 -413 414 -415 416 0
412 413 -414 415 -416 0
412 -413 414 415 -416 0
412 413 -414 -415 416 0
-412 -413 -414 0
-412 413 414 0
-412 415 416 0
-412 -415 -416 0
-376 413 -530 0
-413 530 0
376 -413 0
414 -531 -539 0
414 531 539 0
-414 531 -539 0
-414 -531 539 0
-377 415 -498 0
-415 498 0
377 -415 0
416 -499 -507 0
416 499 507 0
-416 499 -507 0
-416 -499 507 0
417 -418 -433 -442 -462 0
-417 462 0
-417 418 0
-417 442 0
-417 433 0
418 -419 -422 -425 -431 0
-418 431 0
-418 419 0
-418 425 0
-418 422 0
-328 419 420 0
419 -421 542 0
419 420 542 0
-328 419 -421 0
328 -419 -542 0
-419 -420 421 0
-359 420 -503 0
-420 503 0
359 -420 0
421 504 -512 0
421 -504 512 0
-421 -504 -512 0
-421 504 512 0
-420 422 424 0
421 422 423 0
421 422 424 0
-420 422 423 0
420 -421 -422 0
-422 -423 -424 0
-372 423 -511 0
-423 511 0
372 -423 0
424 -512 -520 0
424 512 520 0
-424 512 -520 0
-424 -512 520 0
425 -426 -430 0
425 -427 429 0
425 -426 429 0
425 -427 -430 0
-425 426 427 0
-425 -429 430 0
-302 426 -470 0
-426 470 0
302 -426 0
427 -428 -479 0
427 428 479 0
-427 -428 479 0
-427 428 -479 0
428 470 -471 0
428 -470 471 0
-428 -470 -471 0
-428 470 471 0
-405 429 -543 0
-429 543 0
405 -429 0
430 544 -552 0
430 -544 552 0
-430 -544 -552 0
-430 544 552 0
286 430 431 -432 0
-286 -429 431 432 0
286 -429 431 -432 0
-286 430 431 432 0
-286 -431 -432 0
286 -431 432 0
429 -430 -431 0
432 -506 -514 0
432 506 514 0
-432 506 -514 0
-432 -506 514 0
433 -434 436 437 -438 0
433 -434 -436 -437 -438 0
-433 438 0
-433 -436 437 0
-433 434 0
-433 436 -437 0
295 434 505 0
434 -435 -550 0
434 505 -550 0
295 434 -435 0
-434 435 -505 0
-295 -434 550 0
-278 435 497 0
278 435 -497 0
-278 -435 -497 0
278 -435 497 0
-315 436 -519 0
-436 519 0
315 -436 0
437 520 -528 0
437 -520 528 0
-437 -520 -528 0
-437 520 528 0
438 -439 441 -502 0
354 438 -439 441 0
-438 439 0
-438 -441 0
-354 -438 502 0
-424 439 -497 0
-423 439 440 0
-423 439 -497 0
-424 439 440 0
-439 -440 497 0
423 424 -439 0
-282 440 489 0
282 440 -489 0
-282 -440 -489 0
282 -440 489 0
-435 441 505 0
-441 -505 0
435 -441 0
442 -443 -448 -451 -461 0
-442 461 0
-442 443 0
-442 451 0
-442 448 0
443 444 445 446 481 0
443 444 -445 446 -481 0
-443 -444 0
-443 445 -481 0
-443 -446 0
-443 -445 481 0
-363 444 -475 -483 0
-363 444 475 483 0
363 -444 0
-444 -475 483 0
-444 475 -483 0
-302 445 473 0
302 445 -473 0
-302 -445 -473 0
302 -445 473 0
446 -447 494 0
-446 -494 0
-446 447 0
-282 447 -486 0
282 447 486 0
-282 -447 486 0
282 -447 -486 0
448 -449 476 485 -492 0
448 -449 -476 -485 492 0
-448 -476 -492 0
-448 485 492 0
-448 449 0
-448 476 -485 0
449 450 533 -540 -549 0
449 450 -533 540 549 0
-449 -540 549 0
-449 -533 -549 0
-449 -450 0
-449 533 540 0
450 -484 493 0
450 -477 -493 0
450 477 484 0
-450 477 -484 -493 0
-450 -477 484 493 0
451 -452 -455 -457 -458 0
-451 458 0
-451 452 0
-451 457 0
-451 455 0
452 -453 -454 516 0
452 -453 -454 -525 0
-452 454 0
-452 453 0
-452 -516 525 0
453 470 471 0
-453 -470 0
-453 -471 0
454 524 541 0
454 517 548 0
454 524 548 0
454 517 541 0
-454 -517 -524 0
-454 -541 -548 0
455 -456 -532 -541 0
455 -456 532 -548 0
-455 456 0
-455 -532 541 0
-455 532 548 0
456 -501 525 0
456 492 -516 0
456 -501 -516 0
456 492 525 0
-456 516 -525 0
-456 -492 501 0
457 525 549 -556 0
457 532 -549 556 0
457 532 549 -556 0
457 525 -549 556 0
-457 549 556 0
-457 -549 -556 0
-457 -525 -532 0
458 459 -460 -517 0
458 459 -460 -524 0
-458 460 0
-458 -459 0
-458 517 524 0
459 525 532 0
-459 -525 0
-459 -532 0
460 500 501 0
460 493 508 0
460 500 508 0
460 493 501 0
-460 -493 -500 0
-460 -501 -508 0
301 -360 461 0
461 478 513 0
-360 461 478 0
301 461 513 0
-301 -461 -478 0
360 -461 -513 0
462 -463 -467 -468 -469 0
462 -463 -467 468 469 0
-462 467 0
-462 468 -469 0
-462 463 0
-462 -468 469 0
-447 463 -464 466 0
463 -464 466 494 0
-463 464 0
-463 -466 0
447 -463 -494 0
-319 464 465 -529 0
319 464 -465 -529 0
319 357 464 -465 0
-319 357 464 465 0
319 -464 465 0
-319 -464 -465 0
-357 -464 529 0
465 -479 -487 0
465 479 487 0
-465 479 -487 0
-465 -479 487 0
-302 466 -470 471 -479 0
-302 466 -470 -471 479 0
302 -466 0
-466 -471 -479 0
-466 470 0
-466 471 479 0
-316 467 497 0
467 489 497 0
-282 467 489 0
282 -316 467 -489 0
316 -467 -489 0
282 -467 489 -497 0
-282 -467 -489 -497 0
-388 468 -546 0
-468 546 0
388 -468 0
469 547 -555 0
469 -547 555 0
-469 -547 -555 0
-469 547 555 0
1 2 0
-1 -2 0
638 0

